%%% static parameters %%%
timespan = 1;
Fact = [4];
Distr1 = [15];
Distr2 = [30];
Clients_N = [300];
Demand_W = [15];
Lt0 = [4];
Lt1 = [4];
SS_ = [0.85];
DS_D = [8];
K = [200];
MA = [500];
%%% dynamic parameters %%%
lost_ratio_sales_ret_th = 0.7401678108339147;
lost_ratio_sales_ret_w = 77;
lost_ratio_sales_dis_th = 0.12890510592113502;
lost_ratio_sales_dis_w = 35;
lost_ratio_sales_fac_th = 0.04856206871596391;
lost_ratio_sales_fac_w = 100;
stock_customer_MA_mean_relative_th = 0.8857586944964843;
stock_customer_MA_mean_relative_w = 42;
stock_distributor_MA_mean_relative_th = 0.3062233542103351;
stock_distributor_MA_mean_relative_w = 18;
stock_retailer_MA_mean_relative_th = 0.2298144939663065;
stock_retailer_MA_mean_relative_w = 74;
stock_factory_MA_mean_relative_th = 0.47392409275035186;
stock_factory_MA_mean_relative_w = 36;
